unsat
(forall ((A (_ BitVec 20))
         (B (_ BitVec 20))
         (C (_ BitVec 20))
         (D (_ BitVec 20))
         (E (_ BitVec 20))
         (F (_ BitVec 20))
         (G (_ BitVec 20))
         (H (_ BitVec 20))
         (I (_ BitVec 1))
         (J (_ BitVec 1))
         (K (_ BitVec 1))
         (L (_ BitVec 20))
         (M (_ BitVec 20))
         (N (_ BitVec 20))
         (O (_ BitVec 20))
         (P (_ BitVec 22))
         (Q (_ BitVec 14))
         (R (_ BitVec 14))
         (S (_ BitVec 17))
         (T (_ BitVec 20))
         (U (_ BitVec 18))
         (V (_ BitVec 20))
         (W (_ BitVec 20))
         (X (_ BitVec 20))
         (Y (_ BitVec 20))
         (Z (_ BitVec 20))
         (A1 (_ BitVec 20))
         (B1 (_ BitVec 20))
         (C1 (_ BitVec 38))
         (D1 (_ BitVec 38))
         (E1 (_ BitVec 38))
         (F1 (_ BitVec 38))
         (G1 (_ BitVec 20))
         (H1 (_ BitVec 20))
         (I1 (_ BitVec 20))
         (J1 (_ BitVec 20))
         (K1 (_ BitVec 20))
         (L1 (_ BitVec 20))
         (M1 (_ BitVec 17))
         (N1 (_ BitVec 17))
         (O1 (_ BitVec 17))
         (P1 (_ BitVec 20))
         (Q1 (_ BitVec 1))
         (R1 (_ BitVec 1))
         (S1 (_ BitVec 20))
         (T1 (_ BitVec 20))
         (U1 (_ BitVec 1))
         (V1 (_ BitVec 20))
         (W1 (_ BitVec 1))
         (X1 (_ BitVec 20))
         (Y1 (_ BitVec 22))
         (Z1 (_ BitVec 14))
         (A2 (_ BitVec 22))
         (B2 (_ BitVec 22))
         (C2 (_ BitVec 14))
         (D2 (_ BitVec 22))
         (E2 (_ BitVec 14))
         (F2 (_ BitVec 22))
         (G2 (_ BitVec 20))
         (H2 (_ BitVec 1))
         (I2 (_ BitVec 20))
         (J2 (_ BitVec 17))
         (K2 (_ BitVec 37))
         (L2 (_ BitVec 20))
         (M2 (_ BitVec 22))
         (N2 (_ BitVec 20))
         (O2 (_ BitVec 1))
         (P2 (_ BitVec 14))
         (Q2 (_ BitVec 20))
         (R2 (_ BitVec 20))
         (S2 (_ BitVec 38))
         (T2 (_ BitVec 20))
         (U2 (_ BitVec 20))
         (V2 (_ BitVec 1))
         (W2 (_ BitVec 1))
         (X2 (_ BitVec 20))
         (Y2 (_ BitVec 20))
         (Z2 (_ BitVec 20))
         (A3 (_ BitVec 18))
         (B3 (_ BitVec 22))
         (C3 (_ BitVec 20))
         (D3 (_ BitVec 20))
         (E3 (_ BitVec 20))
         (F3 (_ BitVec 20))
         (G3 (_ BitVec 20))
         (H3 (_ BitVec 20))
         (I3 (_ BitVec 20))
         (J3 (_ BitVec 18))
         (K3 (_ BitVec 17))
         (L3 (_ BitVec 17))
         (M3 (_ BitVec 20))
         (N3 (_ BitVec 20))
         (O3 (_ BitVec 38))
         (P3 (_ BitVec 22))
         (Q3 (_ BitVec 1))
         (R3 (_ BitVec 14))
         (S3 (_ BitVec 38))
         (T3 (_ BitVec 14))
         (U3 (_ BitVec 20))
         (V3 (_ BitVec 16))
         (W3 (_ BitVec 9))
         (X3 (_ BitVec 17))
         (Y3 (_ BitVec 38))
         (Z3 (_ BitVec 30))
         (A4 (_ BitVec 30))
         (B4 (_ BitVec 38))
         (C4 (_ BitVec 20))
         (D4 (_ BitVec 1))
         (E4 (_ BitVec 20))
         (F4 (_ BitVec 20))
         (G4 (_ BitVec 20))
         (H4 (_ BitVec 20))
         (I4 (_ BitVec 16))
         (J4 (_ BitVec 1))
         (K4 (_ BitVec 17))
         (L4 (_ BitVec 17))
         (M4 (_ BitVec 38))
         (N4 (_ BitVec 20))
         (O4 (_ BitVec 30))
         (P4 (_ BitVec 1))
         (Q4 (_ BitVec 38))
         (R4 (_ BitVec 30)))
  (! (let ((a!1 (or ((_ bit2bool 0) S1)
                    ((_ bit2bool 0) L)
                    (not (= ((_ extract 0 0) Q2) #b1))))
           (a!2 (= ((_ extract 13 13)
                     (bvadd (concat #b00 A2) ((_ extract 37 14) M4)))
                   #b1))
           (a!3 (or ((_ bit2bool 0) S1)
                    ((_ bit2bool 1) S1)
                    ((_ bit2bool 2) S1)
                    (not (= ((_ extract 1 1) Q2) #b1))
                    (= ((_ extract 1 1) L) #b1)))
           (a!4 (or ((_ bit2bool 0) U)
                    ((_ bit2bool 0) J3)
                    (not (= ((_ extract 0 0) A3) #b1))))
           (a!5 ((_ extract 17 4)
                  (bvadd (concat #b000 ((_ extract 21 2) P3)) (concat #b0 M2))))
           (a!6 (= ((_ extract 32 12)
                     (bvadd ((_ extract 37 4) F1) (concat #x000 B3)))
                   #b000000000000000000000))
           (a!7 (concat ((_ extract 32 2)
                          (bvadd ((_ extract 37 4) F1) (concat #x000 B3)))
                        (bvadd ((_ extract 1 0) B3) ((_ extract 5 4) F1))
                        ((_ extract 3 0) F1)))
           (a!13 (concat ((_ extract 15 2)
                           (bvadd ((_ extract 37 4) F1) (concat #x000 B3)))
                         (bvadd ((_ extract 1 0) B3) ((_ extract 5 4) F1))
                         ((_ extract 3 0) F1)))
           (a!14 (= ((_ extract 30 10)
                      (bvadd ((_ extract 37 6) S2) (concat #b0000000000 F2)))
                    #b000000000000000000000))
           (a!15 (concat ((_ extract 30 2)
                           (bvadd ((_ extract 37 6) S2)
                                  (concat #b0000000000 F2)))
                         (bvadd ((_ extract 1 0) F2) ((_ extract 7 6) S2))
                         ((_ extract 5 0) S2)))
           (a!21 (concat ((_ extract 13 2)
                           (bvadd ((_ extract 37 6) S2)
                                  (concat #b0000000000 F2)))
                         (bvadd ((_ extract 1 0) F2) ((_ extract 7 6) S2))
                         ((_ extract 5 0) S2)))
           (a!22 (= ((_ extract 28 8)
                      (bvadd (concat #x00 P) ((_ extract 37 8) E1)))
                    #b000000000000000000000))
           (a!23 (concat ((_ extract 28 2)
                           (bvadd (concat #x00 P) ((_ extract 37 8) E1)))
                         (bvadd ((_ extract 9 8) E1) ((_ extract 1 0) P))
                         ((_ extract 7 0) E1)))
           (a!26 (concat ((_ extract 11 2)
                           (bvadd (concat #x00 P) ((_ extract 37 8) E1)))
                         (bvadd ((_ extract 9 8) E1) ((_ extract 1 0) P))
                         ((_ extract 7 0) E1)))
           (a!30 (= ((_ extract 26 6)
                      (bvadd (concat #b000000 D2) ((_ extract 37 10) D1)))
                    #b000000000000000000000))
           (a!31 (concat ((_ extract 26 2)
                           (bvadd (concat #b000000 D2) ((_ extract 37 10) D1)))
                         (bvadd ((_ extract 1 0) D2) ((_ extract 11 10) D1))
                         ((_ extract 9 0) D1)))
           (a!33 (concat ((_ extract 9 2)
                           (bvadd (concat #b000000 D2) ((_ extract 37 10) D1)))
                         (bvadd ((_ extract 1 0) D2) ((_ extract 11 10) D1))
                         ((_ extract 9 0) D1)))
           (a!38 (= ((_ extract 24 4)
                      (bvadd ((_ extract 37 12) C1) (concat #x0 B2)))
                    #b000000000000000000000))
           (a!39 (concat ((_ extract 7 2)
                           (bvadd ((_ extract 37 12) C1) (concat #x0 B2)))
                         (bvadd ((_ extract 13 12) C1) ((_ extract 1 0) B2))
                         ((_ extract 11 0) C1)))
           (a!40 (concat ((_ extract 24 2)
                           (bvadd ((_ extract 37 12) C1) (concat #x0 B2)))
                         (bvadd ((_ extract 13 12) C1) ((_ extract 1 0) B2))
                         ((_ extract 11 0) C1)))
           (a!46 (= ((_ extract 22 2)
                      (bvadd (concat #b00 A2) ((_ extract 37 14) M4)))
                    #b000000000000000000000))
           (a!47 (concat ((_ extract 22 2)
                           (bvadd (concat #b00 A2) ((_ extract 37 14) M4)))
                         (bvadd ((_ extract 15 14) M4) ((_ extract 1 0) A2))
                         ((_ extract 13 0) M4)))
           (a!50 (concat ((_ extract 5 2)
                           (bvadd (concat #b00 A2) ((_ extract 37 14) M4)))
                         (bvadd ((_ extract 15 14) M4) ((_ extract 1 0) A2))
                         ((_ extract 13 0) M4)))
           (a!54 (bvmul #b1111111111111111111111111111111111111
                        (concat (bvadd ((_ extract 20 0) Y1)
                                       ((_ extract 36 16) B4))
                                ((_ extract 15 0) B4))))
           (a!55 (= G1
                    (concat (bvadd ((_ extract 19 16) B4) ((_ extract 3 0) Y1))
                            ((_ extract 15 0) B4))))
           (a!57 (bvadd (concat #b0000000000 F2)
                        ((_ extract 33 2)
                          (bvadd ((_ extract 37 4) F1) (concat #x000 B3)))))
           (a!58 (= ((_ extract 3 2)
                      (bvadd (concat #x00 P) ((_ extract 37 8) E1)))
                    #b00))
           (a!59 (= ((_ extract 5 4)
                      (bvadd ((_ extract 37 6) S2) (concat #b0000000000 F2)))
                    #b00))
           (a!60 (= ((_ extract 7 6)
                      (bvadd ((_ extract 37 4) F1) (concat #x000 B3)))
                    #b00))
           (a!61 ((_ extract 17 2)
                   (bvadd (concat #b000 ((_ extract 21 2) P3)) (concat #b0 M2))))
           (a!63 (= ((_ extract 3 2)
                      (bvadd ((_ extract 37 6) S2) (concat #b0000000000 F2)))
                    #b00))
           (a!64 (= ((_ extract 5 4)
                      (bvadd ((_ extract 37 4) F1) (concat #x000 B3)))
                    #b00))
           (a!65 (or (= N3 #x00000)
                     (= L4 #b00000000000000001)
                     (not (= ((_ extract 19 0) O3) N3))))
           (a!66 (= ((_ extract 23 23)
                      (bvadd ((_ extract 37 4) F1) (concat #x000 B3)))
                    #b1))
           (a!67 (= ((_ extract 21 21)
                      (bvadd ((_ extract 37 6) S2) (concat #b0000000000 F2)))
                    #b1))
           (a!68 (= ((_ extract 19 19)
                      (bvadd (concat #x00 P) ((_ extract 37 8) E1)))
                    #b1))
           (a!69 (= ((_ extract 17 17)
                      (bvadd (concat #b000000 D2) ((_ extract 37 10) D1)))
                    #b1))
           (a!70 (= ((_ extract 15 15)
                      (bvadd ((_ extract 37 12) C1) (concat #x0 B2)))
                    #b1))
           (a!71 (= ((_ extract 11 11) (bvadd Y1 ((_ extract 37 16) B4))) #b1))
           (a!72 (or (= T #x00000)
                     (= S #b00000000000000001)
                     (not (= ((_ extract 19 0) K2) (bvmul #xfffff T)))
                     (not ((_ bit2bool 27) K2)))))
     (let ((a!8 (not (= ((_ extract 22 22)
                          (bvmul #b1111111111111111111111111111111111111 a!7))
                        #b1)))
           (a!9 (not (= ((_ extract 20 20)
                          (bvmul #b1111111111111111111111111111111111111 a!7))
                        #b1)))
           (a!10 (not (= ((_ extract 23 23)
                           (bvmul #b1111111111111111111111111111111111111 a!7))
                         #b1)))
           (a!11 (not (= ((_ extract 24 24)
                           (bvmul #b1111111111111111111111111111111111111 a!7))
                         #b1)))
           (a!12 (not (= ((_ extract 21 21)
                           (bvmul #b1111111111111111111111111111111111111 a!7))
                         #b1)))
           (a!16 (not (= ((_ extract 24 24)
                           (bvmul #b1111111111111111111111111111111111111 a!15))
                         #b1)))
           (a!17 (not (= ((_ extract 22 22)
                           (bvmul #b1111111111111111111111111111111111111 a!15))
                         #b1)))
           (a!18 (not (= ((_ extract 23 23)
                           (bvmul #b1111111111111111111111111111111111111 a!15))
                         #b1)))
           (a!19 (not (= ((_ extract 20 20)
                           (bvmul #b1111111111111111111111111111111111111 a!15))
                         #b1)))
           (a!20 (not (= ((_ extract 21 21)
                           (bvmul #b1111111111111111111111111111111111111 a!15))
                         #b1)))
           (a!24 (not (= ((_ extract 20 20)
                           (bvmul #b1111111111111111111111111111111111111 a!23))
                         #b1)))
           (a!25 (not (= ((_ extract 24 24)
                           (bvmul #b1111111111111111111111111111111111111 a!23))
                         #b1)))
           (a!27 (not (= ((_ extract 22 22)
                           (bvmul #b1111111111111111111111111111111111111 a!23))
                         #b1)))
           (a!28 (not (= ((_ extract 21 21)
                           (bvmul #b1111111111111111111111111111111111111 a!23))
                         #b1)))
           (a!29 (not (= ((_ extract 23 23)
                           (bvmul #b1111111111111111111111111111111111111 a!23))
                         #b1)))
           (a!32 (not (= ((_ extract 21 21)
                           (bvmul #b1111111111111111111111111111111111111 a!31))
                         #b1)))
           (a!34 (not (= ((_ extract 23 23)
                           (bvmul #b1111111111111111111111111111111111111 a!31))
                         #b1)))
           (a!35 (not (= ((_ extract 22 22)
                           (bvmul #b1111111111111111111111111111111111111 a!31))
                         #b1)))
           (a!36 (not (= ((_ extract 20 20)
                           (bvmul #b1111111111111111111111111111111111111 a!31))
                         #b1)))
           (a!37 (not (= ((_ extract 24 24)
                           (bvmul #b1111111111111111111111111111111111111 a!31))
                         #b1)))
           (a!41 (not (= ((_ extract 20 20)
                           (bvmul #b1111111111111111111111111111111111111 a!40))
                         #b1)))
           (a!42 (not (= ((_ extract 21 21)
                           (bvmul #b1111111111111111111111111111111111111 a!40))
                         #b1)))
           (a!43 (not (= ((_ extract 24 24)
                           (bvmul #b1111111111111111111111111111111111111 a!40))
                         #b1)))
           (a!44 (not (= ((_ extract 22 22)
                           (bvmul #b1111111111111111111111111111111111111 a!40))
                         #b1)))
           (a!45 (not (= ((_ extract 23 23)
                           (bvmul #b1111111111111111111111111111111111111 a!40))
                         #b1)))
           (a!48 (not (= ((_ extract 21 21)
                           (bvmul #b1111111111111111111111111111111111111 a!47))
                         #b1)))
           (a!49 (not (= ((_ extract 22 22)
                           (bvmul #b1111111111111111111111111111111111111 a!47))
                         #b1)))
           (a!51 (not (= ((_ extract 24 24)
                           (bvmul #b1111111111111111111111111111111111111 a!47))
                         #b1)))
           (a!52 (not (= ((_ extract 20 20)
                           (bvmul #b1111111111111111111111111111111111111 a!47))
                         #b1)))
           (a!53 (not (= ((_ extract 23 23)
                           (bvmul #b1111111111111111111111111111111111111 a!47))
                         #b1)))
           (a!56 (or (= G1 #x00000)
                     (= ((_ extract 20 0) Y1)
                        (bvmul #b111111111111111111111 ((_ extract 36 16) B4)))
                     (not (= ((_ extract 22 22) a!54) #b1))
                     (not (= ((_ extract 24 24) a!54) #b1))
                     (not (= ((_ extract 23 23) a!54) #b1))
                     (not (= ((_ extract 21 21) a!54) #b1))
                     (not (= ((_ extract 20 20) a!54) #b1))
                     (not a!55)))
           (a!62 (= M3
                    (concat a!61
                            (bvadd ((_ extract 3 2) P3) ((_ extract 1 0) M2))
                            ((_ extract 1 0) P3)))))
     (let ((a!73 (and (or ((_ bit2bool 0) J4) (not ((_ bit2bool 0) Q1)))
                      (not ((_ bit2bool 7) E2))
                      (not ((_ bit2bool 6) E2))
                      (not ((_ bit2bool 5) E2))
                      (not ((_ bit2bool 4) E2))
                      (not ((_ bit2bool 3) E2))
                      (not ((_ bit2bool 2) E2))
                      (not ((_ bit2bool 1) E2))
                      (not ((_ bit2bool 0) E2))
                      (not ((_ bit2bool 5) C2))
                      (not ((_ bit2bool 4) C2))
                      (not ((_ bit2bool 3) C2))
                      (not ((_ bit2bool 2) C2))
                      (not ((_ bit2bool 1) C2))
                      (not ((_ bit2bool 0) C2))
                      (not ((_ bit2bool 13) R))
                      (not ((_ bit2bool 12) R))
                      (not ((_ bit2bool 11) R))
                      (not ((_ bit2bool 10) R))
                      (not ((_ bit2bool 9) R))
                      (not ((_ bit2bool 8) R))
                      (not ((_ bit2bool 7) R))
                      (not ((_ bit2bool 6) R))
                      (not ((_ bit2bool 5) R))
                      (not ((_ bit2bool 4) R))
                      (not ((_ bit2bool 3) R))
                      (not ((_ bit2bool 2) R))
                      (not ((_ bit2bool 1) R))
                      (not ((_ bit2bool 0) R))
                      (not ((_ bit2bool 27) O3))
                      (not ((_ bit2bool 9) T3))
                      (not ((_ bit2bool 8) T3))
                      (not ((_ bit2bool 7) T3))
                      (not ((_ bit2bool 6) T3))
                      (not ((_ bit2bool 5) T3))
                      (not ((_ bit2bool 4) T3))
                      (not ((_ bit2bool 3) T3))
                      (not ((_ bit2bool 2) T3))
                      (not ((_ bit2bool 1) T3))
                      (not ((_ bit2bool 0) T3))
                      (not ((_ bit2bool 1) Z1))
                      (not ((_ bit2bool 0) Z1))
                      (not ((_ bit2bool 3) P2))
                      (not ((_ bit2bool 2) P2))
                      (not ((_ bit2bool 1) P2))
                      (not ((_ bit2bool 0) P2))
                      (not ((_ bit2bool 11) Q))
                      (not ((_ bit2bool 10) Q))
                      (not ((_ bit2bool 9) Q))
                      (not ((_ bit2bool 8) Q))
                      (not ((_ bit2bool 7) Q))
                      (not ((_ bit2bool 6) Q))
                      (not ((_ bit2bool 5) Q))
                      (not ((_ bit2bool 4) Q))
                      (not ((_ bit2bool 3) Q))
                      (not ((_ bit2bool 2) Q))
                      (not ((_ bit2bool 1) Q))
                      (not ((_ bit2bool 0) Q))
                      a!1
                      (not (= ((_ extract 17 17) J3) #b1))
                      (not a!2)
                      (or ((_ bit2bool 1) J3)
                          ((_ bit2bool 0) A3)
                          ((_ bit2bool 1) A3)
                          (not ((_ bit2bool 1) U))
                          (not ((_ bit2bool 2) J3)))
                      (not (= ((_ extract 17 17) A3) #b1))
                      (not (= ((_ extract 17 17) U) #b1))
                      (or ((_ bit2bool 1) L)
                          ((_ bit2bool 2) L)
                          (not (= Q2 #x00005))
                          (= ((_ extract 2 2) S1) #b1))
                      a!3
                      (or (not (= L #x00000))
                          ((_ bit2bool 2) S1)
                          (not ((_ bit2bool 2) Q2)))
                      (or ((_ bit2bool 0) Q2)
                          ((_ bit2bool 0) S1)
                          (not ((_ bit2bool 0) L)))
                      a!4
                      (or ((_ bit2bool 2) U)
                          ((_ bit2bool 0) J3)
                          ((_ bit2bool 1) J3)
                          ((_ bit2bool 2) J3)
                          (not ((_ bit2bool 2) A3)))
                      (or ((_ bit2bool 1) U)
                          ((_ bit2bool 0) J3)
                          ((_ bit2bool 1) J3)
                          ((_ bit2bool 2) J3)
                          (not ((_ bit2bool 1) A3)))
                      (or ((_ bit2bool 0) A3)
                          (not ((_ bit2bool 0) J3))
                          (= ((_ extract 0 0) U) #b1))
                      (= a!5 #b00000000000000)
                      (or (= L1 #x00000)
                          a!6
                          a!8
                          a!9
                          a!10
                          a!11
                          a!12
                          (not (= L1 a!13)))
                      (or (= X2 #x00000)
                          a!14
                          a!16
                          a!17
                          a!18
                          a!19
                          a!20
                          (not (= X2 a!21)))
                      (or ((_ bit2bool 20) E1)
                          ((_ bit2bool 23) E1)
                          a!22
                          a!24
                          a!25
                          (not (= J1 a!26))
                          a!27
                          a!28)
                      (or (= J1 #x00000)
                          a!22
                          a!24
                          a!25
                          (not (= J1 a!26))
                          a!27
                          a!28
                          a!29)
                      (or (= G2 #x00000)
                          a!30
                          a!32
                          (not (= G2 a!33))
                          a!34
                          a!35
                          a!36
                          a!37)
                      (or (= H1 #x00000)
                          a!38
                          (not (= H1 a!39))
                          a!41
                          a!42
                          a!43
                          a!44
                          a!45)
                      (or ((_ bit2bool 23) M4)
                          ((_ bit2bool 20) M4)
                          (= T2 #x00000)
                          a!46
                          a!48
                          a!49
                          (not (= T2 a!50))
                          a!51)
                      (or (= T2 #x00000)
                          a!46
                          a!48
                          a!49
                          (not (= T2 a!50))
                          a!51
                          a!52
                          a!53)
                      a!56
                      (or (= L1 #x00000) (not (= A1 #x00000)))
                      (or (not (= B1 #x00000)) (= M3 #x00000))
                      (or (not (= N4 #x00000)) (= X2 #x00000))
                      (or (= J1 #x00000) (not (= Z #x00000)))
                      (= ((_ extract 5 4) a!57) #b00)
                      a!58
                      (or (not (= Y #x00000)) (= G2 #x00000))
                      a!59
                      (= ((_ extract 11 10) D1)
                         (bvmul #b11 ((_ extract 1 0) D2)))
                      a!60
                      (or (= M3 #x00000) (= O1 #b00000000000000001) (not a!62))
                      (= ((_ extract 9 8) E1) (bvmul #b11 ((_ extract 1 0) P)))
                      a!63
                      a!64
                      (or (= L1 #x00000)
                          (= K3 #b00000000000000001)
                          (not (= L1 a!13)))
                      (or (= X2 #x00000)
                          (= K4 #b00000000000000001)
                          (not (= X2 a!21)))
                      (or (= J1 #x00000)
                          (= J2 #b00000000000000001)
                          (not (= J1 a!26)))
                      (or (= G2 #x00000)
                          (= N1 #b00000000000000001)
                          (not (= G2 a!33)))
                      (or (= H1 #x00000)
                          (= X3 #b00000000000000001)
                          (not (= H1 a!39)))
                      (or (= G1 #x00000) (= L3 #b00000000000000001) (not a!55))
                      (or (= T2 #x00000)
                          (= M1 #b00000000000000001)
                          (not (= a!50 T2)))
                      a!65
                      (or (= H1 #x00000) (not (= D3 #x00000)))
                      (not a!66)
                      (not a!67)
                      (not a!68)
                      (not a!69)
                      (not a!70)
                      (not a!71)
                      a!72)))
       (= (INV!slice!1 A
                       B
                       C
                       D
                       E
                       F
                       G
                       H
                       I
                       J
                       K
                       L
                       M
                       N
                       O
                       P
                       Q
                       R
                       S
                       T
                       U
                       V
                       W
                       X
                       Y
                       Z
                       A1
                       B1
                       C1
                       D1
                       E1
                       F1
                       G1
                       H1
                       I1
                       J1
                       K1
                       L1
                       M1
                       N1
                       O1
                       P1
                       Q1
                       R1
                       S1
                       T1
                       U1
                       V1
                       W1
                       X1
                       Y1
                       Z1
                       A2
                       B2
                       C2
                       D2
                       E2
                       F2
                       G2
                       H2
                       I2
                       J2
                       K2
                       L2
                       M2
                       N2
                       O2
                       P2
                       Q2
                       R2
                       S2
                       T2
                       U2
                       V2
                       W2
                       X2
                       Y2
                       Z2
                       A3
                       B3
                       C3
                       D3
                       E3
                       F3
                       G3
                       H3
                       I3
                       J3
                       K3
                       L3
                       M3
                       N3
                       O3
                       P3
                       Q3
                       R3
                       S3
                       T3
                       U3
                       V3
                       W3
                       X3
                       Y3
                       Z3
                       A4
                       B4
                       C4
                       D4
                       E4
                       F4
                       G4
                       H4
                       I4
                       J4
                       K4
                       L4
                       M4
                       N4
                       O4
                       P4
                       Q4
                       R4)
          a!73))))
     :weight 0))
